p cnf 29 18
-1 -2 -3 11 27 0 
-4 10 23 27 0 
-5 -6 24 27 0 
-7 14 20 27 0 
-5 -8 15 18 26 27 0 
-5 -7 14 20 -2 -9 27 0 
-10 4 23 -11 3 -12 13 16 21 22 28 0 
-10 4 23 -11 3 -13 12 16 21 22 29 0 
-2 -14 7 20 -15 8 18 26 28 0 
-13 12 16 21 22 28 0 
-10 4 23 -11 3 -16 12 13 21 22 27 0 
-17 -15 8 18 26 -11 3 29 0 
-18 8 15 26 -1 -11 3 -19 25 -20 7 14 28 0 
-10 4 23 -11 3 -21 12 13 16 22 27 0 
-13 12 16 21 22 29 0 
-22 12 13 16 21 27 0 
-23 4 10 -24 6 -15 8 18 26 -20 7 14 27 0 
-25 19 -26 8 15 18 -20 7 14 29 0 
